50
125 125
1 83 457
2 80 981
3 76 29
4 73 611
5 72 744
6 72 975
7 69 26
8 67 671
9 66 479
10 66 280
11 63 568
12 63 134
13 62 711
14 61 977
15 60 821
16 59 918
17 59 0
18 57 684
19 57 999
20 57 71
21 56 849
22 54 859
23 53 927
24 53 175
25 50 123
26 49 351
27 45 55
28 45 921
29 44 78
30 44 917
31 44 758
32 43 870
33 42 21
34 42 804
35 41 111
36 40 756
37 38 768
38 37 981
39 32 61
40 32 432
41 31 805
42 31 420
43 30 838
44 30 751
45 30 646
46 28 453
47 27 718
48 26 470
49 25 596
50 25 203
